Minimize
	value: tt

Subject to
tt + 1000 s_1_1 > 0.0
tt - t_1_1 - 1003.947571 s_1_1  + 3.947571 s_1_7  > -989.215800
tt + 1000 s_2_1 > 0.0
tt - t_2_1 - 1002.200526 s_2_1  + 2.200526 s_2_7  > -987.011000
tt + 1000 s_1_2 > 0.0
tt - t_1_2 - 1003.947571 s_1_2  + 3.947571 s_1_7  > -991.123900
tt + 1000 s_2_2 > 0.0
tt - t_2_2 - 1002.200526 s_2_2  + 2.200526 s_2_7  > -989.208986
tt + 1000 s_1_3 > 0.0
tt - t_1_3 - 1003.947571 s_1_3  + 3.947571 s_1_7  > -993.067811
tt + 1000 s_2_3 > 0.0
tt - t_2_3 - 1002.200526 s_2_3  + 2.200526 s_2_7  > -992.098371
tt + 1000 s_1_4 > 0.0
tt - t_1_4 - 1002.288625 s_1_4  + 1.144313 s_1_1  + 1.144313 s_1_2  > -999.108122
tt + 1000 s_2_4 > 0.0
tt - t_2_4 - 1002.877692 s_2_4  + 1.438846 s_2_1  + 1.438846 s_2_2  > -998.701222
tt + 1000 s_1_5 > 0.0
tt - t_1_5 - 1005.091884 s_1_5  + 1.144313 s_1_1  + 3.947571 s_1_7  > -997.095311
tt + 1000 s_2_5 > 0.0
tt - t_2_5 - 1003.639372 s_2_5  + 1.438846 s_2_1  + 2.200526 s_2_7  > -995.735028
tt + 1000 s_1_6 > 0.0
tt - t_1_6 - 1004.577250 s_1_6  + 1.144313 s_1_3  + 1.144313 s_1_5  + 1.144313 s_1_4  + 1.144313 s_1_2  > -998.360300
tt + 1000 s_2_6 > 0.0
tt - t_2_6 - 1005.755385 s_2_6  + 1.438846 s_2_3  + 1.438846 s_2_5  + 1.438846 s_2_4  + 1.438846 s_2_2  > -988.540667
tt + 1000 s_1_7 > 0.0
tt - t_1_7 - 1000.000000 s_1_7  > -993.500667
tt + 1000 s_2_7 > 0.0
tt - t_2_7 - 1000.000000 s_2_7  > -997.693167
s_1_1 + s_2_1 = 1
s_1_2 + s_2_2 = 1
s_1_3 + s_2_3 = 1
s_1_4 + s_2_4 = 1
s_1_5 + s_2_5 = 1
s_1_6 + s_2_6 = 1
s_1_7 + s_2_7 = 1
s_1_1 + s_1_2 + 1000 r_1_1_2 >= 2
- s_1_1 - s_1_2 - 1000 r_1_1_2 >= -1001
t_1_1 - t_1_2 - 1000.000000 u_1_1_2 - 3.947571 s_1_2  + 3.947571 s_1_7  + 2000.000000 r_1_1_2 > -991.123900
s_2_1 + s_2_2 + 1000 r_2_1_2 >= 2
- s_2_1 - s_2_2 - 1000 r_2_1_2 >= -1001
t_2_1 - t_2_2 - 1000.000000 u_2_1_2 - 2.200526 s_2_2  + 2.200526 s_2_7  + 2000.000000 r_2_1_2 > -989.208986
s_1_1 + s_1_3 + 1000 r_1_1_3 >= 2
- s_1_1 - s_1_3 - 1000 r_1_1_3 >= -1001
t_1_1 - t_1_3 - 1000.000000 u_1_1_3 - 3.947571 s_1_3  + 3.947571 s_1_7  + 2000.000000 r_1_1_3 > -993.067811
s_2_1 + s_2_3 + 1000 r_2_1_3 >= 2
- s_2_1 - s_2_3 - 1000 r_2_1_3 >= -1001
t_2_1 - t_2_3 - 1000.000000 u_2_1_3 - 2.200526 s_2_3  + 2.200526 s_2_7  + 2000.000000 r_2_1_3 > -992.098371
t_1_4 - t_1_1 - 1003.947571 s_1_1  + 3.947571 s_1_7  > -989.215800
t_1_4 - t_2_1 - 1002.200526 s_2_1  + 2.200526 s_2_7  > -987.011000
t_2_4 - t_1_1 - 1003.947571 s_1_1  + 3.947571 s_1_7  > -989.215800
t_2_4 - t_2_1 - 1002.200526 s_2_1  + 2.200526 s_2_7  > -987.011000
t_1_5 - t_1_1 - 1003.947571 s_1_1  + 3.947571 s_1_7  > -989.215800
t_1_5 - t_2_1 - 1002.200526 s_2_1  + 2.200526 s_2_7  > -987.011000
t_2_5 - t_1_1 - 1003.947571 s_1_1  + 3.947571 s_1_7  > -989.215800
t_2_5 - t_2_1 - 1002.200526 s_2_1  + 2.200526 s_2_7  > -987.011000
t_1_1 - t_1_7 - 1000.000000 s_1_7  > -993.500667
t_1_1 - t_2_7 - 1000.000000 s_2_7  > -997.693167
t_2_1 - t_1_7 - 1000.000000 s_1_7  > -993.500667
t_2_1 - t_2_7 - 1000.000000 s_2_7  > -997.693167
s_1_2 + s_1_1 + 1000 r_1_1_2 >= 2
- s_1_2 - s_1_1 - 1000 r_1_1_2 >= -1001
t_1_2 - t_1_1 + 1000.000000 u_1_1_2 - 3.947571 s_1_1  + 3.947571 s_1_7  + 2000.000000 r_1_1_2 > 10.784200
s_2_2 + s_2_1 + 1000 r_2_1_2 >= 2
- s_2_2 - s_2_1 - 1000 r_2_1_2 >= -1001
t_2_2 - t_2_1 + 1000.000000 u_2_1_2 - 2.200526 s_2_1  + 2.200526 s_2_7  + 2000.000000 r_2_1_2 > 12.989000
s_1_2 + s_1_3 + 1000 r_1_2_3 >= 2
- s_1_2 - s_1_3 - 1000 r_1_2_3 >= -1001
t_1_2 - t_1_3 - 1000.000000 u_1_2_3 - 3.947571 s_1_3  + 3.947571 s_1_7  + 2000.000000 r_1_2_3 > -993.067811
s_2_2 + s_2_3 + 1000 r_2_2_3 >= 2
- s_2_2 - s_2_3 - 1000 r_2_2_3 >= -1001
t_2_2 - t_2_3 - 1000.000000 u_2_2_3 - 2.200526 s_2_3  + 2.200526 s_2_7  + 2000.000000 r_2_2_3 > -992.098371
t_1_4 - t_1_2 - 1003.947571 s_1_2  + 3.947571 s_1_7  > -991.123900
t_1_4 - t_2_2 - 1002.200526 s_2_2  + 2.200526 s_2_7  > -989.208986
t_2_4 - t_1_2 - 1003.947571 s_1_2  + 3.947571 s_1_7  > -991.123900
t_2_4 - t_2_2 - 1002.200526 s_2_2  + 2.200526 s_2_7  > -989.208986
s_1_2 + s_1_5 + 1000 r_1_2_5 >= 2
- s_1_2 - s_1_5 - 1000 r_1_2_5 >= -1001
t_1_2 - t_1_5 - 1000.000000 u_1_2_5 - 5.091884 s_1_5  + 1.144313 s_1_1  + 3.947571 s_1_7  + 2000.000000 r_1_2_5 > -997.095311
s_2_2 + s_2_5 + 1000 r_2_2_5 >= 2
- s_2_2 - s_2_5 - 1000 r_2_2_5 >= -1001
t_2_2 - t_2_5 - 1000.000000 u_2_2_5 - 3.639372 s_2_5  + 1.438846 s_2_1  + 2.200526 s_2_7  + 2000.000000 r_2_2_5 > -995.735028
t_1_6 - t_1_2 - 1003.947571 s_1_2  + 3.947571 s_1_7  > -991.123900
t_1_6 - t_2_2 - 1002.200526 s_2_2  + 2.200526 s_2_7  > -989.208986
t_2_6 - t_1_2 - 1003.947571 s_1_2  + 3.947571 s_1_7  > -991.123900
t_2_6 - t_2_2 - 1002.200526 s_2_2  + 2.200526 s_2_7  > -989.208986
t_1_2 - t_1_7 - 1000.000000 s_1_7  > -993.500667
t_1_2 - t_2_7 - 1000.000000 s_2_7  > -997.693167
t_2_2 - t_1_7 - 1000.000000 s_1_7  > -993.500667
t_2_2 - t_2_7 - 1000.000000 s_2_7  > -997.693167
s_1_3 + s_1_1 + 1000 r_1_1_3 >= 2
- s_1_3 - s_1_1 - 1000 r_1_1_3 >= -1001
t_1_3 - t_1_1 + 1000.000000 u_1_1_3 - 3.947571 s_1_1  + 3.947571 s_1_7  + 2000.000000 r_1_1_3 > 10.784200
s_2_3 + s_2_1 + 1000 r_2_1_3 >= 2
- s_2_3 - s_2_1 - 1000 r_2_1_3 >= -1001
t_2_3 - t_2_1 + 1000.000000 u_2_1_3 - 2.200526 s_2_1  + 2.200526 s_2_7  + 2000.000000 r_2_1_3 > 12.989000
s_1_3 + s_1_2 + 1000 r_1_2_3 >= 2
- s_1_3 - s_1_2 - 1000 r_1_2_3 >= -1001
t_1_3 - t_1_2 + 1000.000000 u_1_2_3 - 3.947571 s_1_2  + 3.947571 s_1_7  + 2000.000000 r_1_2_3 > 8.876100
s_2_3 + s_2_2 + 1000 r_2_2_3 >= 2
- s_2_3 - s_2_2 - 1000 r_2_2_3 >= -1001
t_2_3 - t_2_2 + 1000.000000 u_2_2_3 - 2.200526 s_2_2  + 2.200526 s_2_7  + 2000.000000 r_2_2_3 > 10.791014
s_1_3 + s_1_4 + 1000 r_1_3_4 >= 2
- s_1_3 - s_1_4 - 1000 r_1_3_4 >= -1001
t_1_3 - t_1_4 - 1000.000000 u_1_3_4 - 2.288625 s_1_4  + 1.144313 s_1_1  + 1.144313 s_1_2  + 2000.000000 r_1_3_4 > -999.108122
s_2_3 + s_2_4 + 1000 r_2_3_4 >= 2
- s_2_3 - s_2_4 - 1000 r_2_3_4 >= -1001
t_2_3 - t_2_4 - 1000.000000 u_2_3_4 - 2.877692 s_2_4  + 1.438846 s_2_1  + 1.438846 s_2_2  + 2000.000000 r_2_3_4 > -998.701222
s_1_3 + s_1_5 + 1000 r_1_3_5 >= 2
- s_1_3 - s_1_5 - 1000 r_1_3_5 >= -1001
t_1_3 - t_1_5 - 1000.000000 u_1_3_5 - 5.091884 s_1_5  + 1.144313 s_1_1  + 3.947571 s_1_7  + 2000.000000 r_1_3_5 > -997.095311
s_2_3 + s_2_5 + 1000 r_2_3_5 >= 2
- s_2_3 - s_2_5 - 1000 r_2_3_5 >= -1001
t_2_3 - t_2_5 - 1000.000000 u_2_3_5 - 3.639372 s_2_5  + 1.438846 s_2_1  + 2.200526 s_2_7  + 2000.000000 r_2_3_5 > -995.735028
t_1_6 - t_1_3 - 1003.947571 s_1_3  + 3.947571 s_1_7  > -993.067811
t_1_6 - t_2_3 - 1002.200526 s_2_3  + 2.200526 s_2_7  > -992.098371
t_2_6 - t_1_3 - 1003.947571 s_1_3  + 3.947571 s_1_7  > -993.067811
t_2_6 - t_2_3 - 1002.200526 s_2_3  + 2.200526 s_2_7  > -992.098371
t_1_3 - t_1_7 - 1000.000000 s_1_7  > -993.500667
t_1_3 - t_2_7 - 1000.000000 s_2_7  > -997.693167
t_2_3 - t_1_7 - 1000.000000 s_1_7  > -993.500667
t_2_3 - t_2_7 - 1000.000000 s_2_7  > -997.693167
s_1_4 + s_1_3 + 1000 r_1_3_4 >= 2
- s_1_4 - s_1_3 - 1000 r_1_3_4 >= -1001
t_1_4 - t_1_3 + 1000.000000 u_1_3_4 - 3.947571 s_1_3  + 3.947571 s_1_7  + 2000.000000 r_1_3_4 > 6.932189
s_2_4 + s_2_3 + 1000 r_2_3_4 >= 2
- s_2_4 - s_2_3 - 1000 r_2_3_4 >= -1001
t_2_4 - t_2_3 + 1000.000000 u_2_3_4 - 2.200526 s_2_3  + 2.200526 s_2_7  + 2000.000000 r_2_3_4 > 7.901629
s_1_4 + s_1_5 + 1000 r_1_4_5 >= 2
- s_1_4 - s_1_5 - 1000 r_1_4_5 >= -1001
t_1_4 - t_1_5 - 1000.000000 u_1_4_5 - 5.091884 s_1_5  + 1.144313 s_1_1  + 3.947571 s_1_7  + 2000.000000 r_1_4_5 > -997.095311
s_2_4 + s_2_5 + 1000 r_2_4_5 >= 2
- s_2_4 - s_2_5 - 1000 r_2_4_5 >= -1001
t_2_4 - t_2_5 - 1000.000000 u_2_4_5 - 3.639372 s_2_5  + 1.438846 s_2_1  + 2.200526 s_2_7  + 2000.000000 r_2_4_5 > -995.735028
t_1_6 - t_1_4 - 1002.288625 s_1_4  + 1.144313 s_1_1  + 1.144313 s_1_2  > -999.108122
t_1_6 - t_2_4 - 1002.877692 s_2_4  + 1.438846 s_2_1  + 1.438846 s_2_2  > -998.701222
t_2_6 - t_1_4 - 1002.288625 s_1_4  + 1.144313 s_1_1  + 1.144313 s_1_2  > -999.108122
t_2_6 - t_2_4 - 1002.877692 s_2_4  + 1.438846 s_2_1  + 1.438846 s_2_2  > -998.701222
s_1_5 + s_1_2 + 1000 r_1_2_5 >= 2
- s_1_5 - s_1_2 - 1000 r_1_2_5 >= -1001
t_1_5 - t_1_2 + 1000.000000 u_1_2_5 - 3.947571 s_1_2  + 3.947571 s_1_7  + 2000.000000 r_1_2_5 > 8.876100
s_2_5 + s_2_2 + 1000 r_2_2_5 >= 2
- s_2_5 - s_2_2 - 1000 r_2_2_5 >= -1001
t_2_5 - t_2_2 + 1000.000000 u_2_2_5 - 2.200526 s_2_2  + 2.200526 s_2_7  + 2000.000000 r_2_2_5 > 10.791014
s_1_5 + s_1_3 + 1000 r_1_3_5 >= 2
- s_1_5 - s_1_3 - 1000 r_1_3_5 >= -1001
t_1_5 - t_1_3 + 1000.000000 u_1_3_5 - 3.947571 s_1_3  + 3.947571 s_1_7  + 2000.000000 r_1_3_5 > 6.932189
s_2_5 + s_2_3 + 1000 r_2_3_5 >= 2
- s_2_5 - s_2_3 - 1000 r_2_3_5 >= -1001
t_2_5 - t_2_3 + 1000.000000 u_2_3_5 - 2.200526 s_2_3  + 2.200526 s_2_7  + 2000.000000 r_2_3_5 > 7.901629
s_1_5 + s_1_4 + 1000 r_1_4_5 >= 2
- s_1_5 - s_1_4 - 1000 r_1_4_5 >= -1001
t_1_5 - t_1_4 + 1000.000000 u_1_4_5 - 2.288625 s_1_4  + 1.144313 s_1_1  + 1.144313 s_1_2  + 2000.000000 r_1_4_5 > 0.891878
s_2_5 + s_2_4 + 1000 r_2_4_5 >= 2
- s_2_5 - s_2_4 - 1000 r_2_4_5 >= -1001
t_2_5 - t_2_4 + 1000.000000 u_2_4_5 - 2.877692 s_2_4  + 1.438846 s_2_1  + 1.438846 s_2_2  + 2000.000000 r_2_4_5 > 1.298778
t_1_6 - t_1_5 - 1005.091884 s_1_5  + 1.144313 s_1_1  + 3.947571 s_1_7  > -997.095311
t_1_6 - t_2_5 - 1003.639372 s_2_5  + 1.438846 s_2_1  + 2.200526 s_2_7  > -995.735028
t_2_6 - t_1_5 - 1005.091884 s_1_5  + 1.144313 s_1_1  + 3.947571 s_1_7  > -997.095311
t_2_6 - t_2_5 - 1003.639372 s_2_5  + 1.438846 s_2_1  + 2.200526 s_2_7  > -995.735028
t_1_5 - t_1_7 - 1000.000000 s_1_7  > -993.500667
t_1_5 - t_2_7 - 1000.000000 s_2_7  > -997.693167
t_2_5 - t_1_7 - 1000.000000 s_1_7  > -993.500667
t_2_5 - t_2_7 - 1000.000000 s_2_7  > -997.693167
Binary
s_1_1
s_2_1
s_1_2
s_2_2
s_1_3
s_2_3
s_1_4
s_2_4
s_1_5
s_2_5
s_1_6
s_2_6
s_1_7
s_2_7
u_1_1_2
r_1_1_2
u_2_1_2
r_2_1_2
u_1_1_3
r_1_1_3
u_2_1_3
r_2_1_3
u_1_2_3
r_1_2_3
u_2_2_3
r_2_2_3
u_1_2_5
r_1_2_5
u_2_2_5
r_2_2_5
u_1_3_4
r_1_3_4
u_2_3_4
r_2_3_4
u_1_3_5
r_1_3_5
u_2_3_5
r_2_3_5
u_1_4_5
r_1_4_5
u_2_4_5
r_2_4_5

End
